N = 126;
M = 280;
Edge_Start = [1, 1, 2, 3, 3, 4, 4, 5, 5, 5, 6, 6, 7, 7, 7, 8, 8, 9, 9, 10, 10, 11, 11, 11, 12, 12, 13, 13, 14, 14, 15, 15, 16, 16, 17, 17, 18, 18, 19, 19, 20, 20, 21, 21, 22, 22, 22, 23, 23, 23, 24, 24, 25, 25, 25, 26, 26, 27, 27, 28, 28, 29, 29, 30, 30, 30, 31, 32, 32, 33, 33, 33, 34, 34, 34, 35, 35, 35, 36, 36, 37, 37, 38, 38, 39, 39, 40, 40, 40, 41, 41, 42, 43, 43, 44, 44, 45, 45, 46, 46, 46, 47, 48, 48, 49, 49, 49, 50, 50, 50, 51, 51, 52, 53, 53, 53, 54, 54, 54, 55, 55, 56, 56, 57, 57, 57, 58, 58, 59, 59, 60, 60, 60, 61, 61, 61, 62, 62, 63, 64, 64, 65, 65, 65, 66, 66, 66, 67, 67, 67, 68, 68, 68, 69, 69, 69, 70, 70, 71, 71, 72, 73, 73, 73, 74, 74, 74, 75, 75, 76, 76, 77, 77, 78, 78, 79, 79, 80, 80, 81, 81, 81, 82, 82, 82, 83, 83, 83, 84, 84, 85, 86, 87, 87, 87, 88, 89, 89, 90, 90, 90, 91, 91, 91, 92, 92, 93, 93, 94, 94, 95, 95, 96, 97, 97, 97, 98, 98, 98, 99, 99, 99, 100, 101, 101, 102, 102, 103, 103, 103, 104, 104, 104, 105, 105, 105, 106, 106, 106, 107, 107, 108, 109, 109, 110, 110, 110, 111, 111, 112, 113, 113, 114, 114, 114, 115, 115, 116, 116, 117, 117, 118, 118, 119, 119, 120, 120, 120, 121, 122, 122, 123, 123, 124, 124, 124, 125, 125, 126, 126];
Edge_End = [2, 16, 1, 4, 18, 3, 5, 4, 6, 20, 5, 7, 6, 8, 22, 7, 9, 8, 10, 9, 11, 10, 12, 26, 11, 13, 12, 14, 13, 15, 14, 30, 1, 17, 16, 33, 3, 19, 18, 35, 5, 21, 20, 22, 7, 21, 23, 22, 24, 39, 23, 25, 24, 26, 41, 11, 25, 28, 43, 27, 29, 28, 30, 15, 29, 31, 30, 33, 48, 17, 32, 34, 33, 35, 50, 19, 34, 36, 35, 37, 36, 38, 37, 54, 23, 40, 39, 41, 56, 25, 40, 43, 27, 42, 45, 60, 44, 46, 45, 47, 62, 46, 32, 49, 48, 50, 65, 34, 49, 51, 50, 67, 53, 52, 54, 69, 38, 53, 55, 54, 71, 40, 57, 56, 58, 73, 57, 59, 58, 60, 44, 59, 61, 60, 62, 77, 46, 61, 79, 65, 80, 49, 64, 66, 65, 67, 82, 51, 66, 68, 67, 69, 84, 53, 68, 70, 69, 71, 55, 70, 73, 57, 72, 74, 73, 75, 90, 74, 76, 75, 92, 61, 78, 77, 79, 63, 78, 64, 81, 80, 82, 97, 66, 81, 83, 82, 84, 99, 68, 83, 101, 87, 86, 88, 103, 87, 90, 105, 74, 89, 91, 90, 92, 107, 76, 91, 94, 109, 93, 95, 94, 111, 97, 81, 96, 98, 97, 99, 114, 83, 98, 100, 99, 85, 102, 101, 103, 87, 102, 104, 103, 105, 120, 89, 104, 106, 105, 107, 122, 91, 106, 124, 93, 110, 109, 111, 126, 95, 110, 113, 112, 114, 98, 113, 115, 114, 116, 115, 117, 116, 118, 117, 119, 118, 120, 104, 119, 121, 120, 106, 123, 122, 124, 108, 123, 125, 124, 126, 110, 125];
L = [11, 7, 11, 3, 3, 3, 10, 10, 10, 17, 10, 12, 12, 14, 10, 14, 16, 16, 13, 13, 9, 9, 5, 12, 5, 9, 9, 6, 6, 11, 11, 10, 7, 1, 1, 14, 3, 5, 5, 15, 17, 11, 11, 9, 10, 9, 4, 4, 17, 8, 17, 17, 17, 2, 14, 12, 2, 6, 17, 6, 12, 12, 16, 10, 16, 9, 9, 1, 14, 14, 1, 18, 18, 8, 6, 15, 8, 17, 17, 12, 12, 2, 2, 1, 8, 18, 18, 7, 10, 14, 7, 1, 17, 1, 12, 13, 12, 10, 10, 1, 11, 1, 14, 7, 7, 16, 16, 6, 16, 4, 4, 4, 8, 8, 10, 9, 1, 10, 10, 10, 13, 10, 11, 11, 11, 9, 11, 4, 4, 14, 13, 14, 8, 8, 12, 11, 11, 12, 5, 3, 1, 16, 3, 2, 2, 8, 8, 4, 8, 4, 4, 13, 15, 9, 13, 19, 19, 5, 13, 5, 16, 9, 16, 10, 10, 8, 11, 8, 5, 5, 15, 11, 14, 14, 15, 5, 15, 1, 7, 7, 5, 8, 8, 5, 19, 19, 18, 9, 15, 18, 2, 1, 1, 1, 14, 1, 1, 7, 11, 1, 5, 5, 17, 7, 15, 17, 17, 6, 17, 7, 7, 3, 14, 8, 14, 9, 9, 9, 7, 9, 9, 11, 11, 2, 5, 5, 5, 14, 5, 17, 17, 12, 5, 7, 12, 1, 1, 15, 19, 7, 15, 19, 6, 1, 1, 12, 15, 3, 12, 15, 15, 5, 7, 5, 1, 1, 9, 9, 7, 7, 4, 4, 1, 1, 14, 5, 14, 16, 16, 19, 7, 7, 3, 19, 3, 4, 4, 5, 15, 5];
T = [1, 10, 1, 2, 1, 2, 21, 21, 4, 13, 4, 9, 9, 11, 6, 11, 11, 11, 24, 24, 4, 4, 10, 16, 10, 3, 3, 2, 2, 13, 13, 8, 10, 1, 1, 24, 1, 1, 1, 18, 13, 12, 12, 1, 6, 1, 1, 1, 12, 6, 12, 19, 19, 10, 26, 16, 10, 3, 22, 3, 6, 6, 8, 8, 8, 8, 8, 1, 16, 24, 1, 12, 12, 11, 1, 18, 11, 29, 29, 8, 8, 6, 6, 1, 6, 25, 25, 1, 9, 26, 1, 1, 22, 1, 7, 5, 7, 12, 12, 1, 13, 1, 16, 9, 9, 13, 11, 1, 13, 1, 1, 18, 10, 10, 13, 1, 1, 13, 10, 10, 9, 9, 16, 16, 1, 11, 1, 1, 1, 16, 5, 16, 7, 7, 16, 10, 13, 16, 1, 2, 2, 11, 2, 2, 2, 1, 5, 18, 1, 1, 1, 10, 12, 1, 10, 19, 19, 5, 9, 5, 16, 11, 16, 7, 7, 13, 6, 13, 3, 3, 17, 10, 5, 5, 17, 1, 17, 2, 6, 6, 10, 6, 5, 10, 24, 24, 17, 14, 12, 17, 4, 1, 1, 3, 12, 3, 5, 4, 6, 5, 6, 6, 22, 4, 17, 22, 11, 7, 11, 1, 1, 8, 9, 6, 9, 6, 6, 8, 13, 14, 8, 16, 16, 4, 1, 1, 1, 12, 1, 12, 12, 3, 9, 4, 3, 6, 6, 17, 9, 4, 17, 19, 7, 1, 1, 9, 10, 8, 9, 8, 8, 1, 13, 1, 1, 1, 19, 19, 1, 1, 3, 3, 1, 1, 15, 9, 15, 14, 14, 9, 3, 3, 4, 19, 4, 11, 11, 6, 10, 6];
Lower_Bound = [0, 1, 78, 80, 101, 105, 114, 125, 136, 160, 164, 174, 177, 179, 192, 10, 11, 77, 76, 114, 121, 120, 121, 133, 152, 162, 217, 214, 208, 200, 208, 36, 35, 47, 58, 87, 95, 93, 127, 152, 153, 240, 239, 200, 207, 219, 220, 52, 61, 48, 49, 89, 79, 92, 102, 161, 177, 178, 179, 195, 202, 218, 235, 72, 70, 68, 67, 68, 78, 97, 102, 195, 179, 172, 185, 188, 212, 217, 234, 74, 80, 73, 97, 80, 172, 179, 178, 181, 161, 166, 172, 194, 214, 224, 223, 95, 86, 92, 100, 116, 168, 167, 166, 154, 157, 163, 176, 198, 207, 206, 215, 114, 106, 105, 106, 125, 126, 129, 130, 145, 159, 172, 175, 179, 190, 196];
Upper_Bound = [0, 1, 78, 80, 101, 105, 114, 125, 136, 160, 164, 174, 177, 179, 192, 10, 11, 77, 76, 114, 121, 120, 121, 133, 152, 162, 217, 214, 208, 200, 208, 36, 35, 47, 58, 87, 95, 93, 127, 152, 153, 240, 239, 200, 207, 219, 220, 52, 61, 48, 49, 89, 79, 92, 102, 161, 177, 178, 179, 195, 202, 218, 235, 72, 70, 68, 67, 68, 78, 97, 102, 195, 179, 172, 185, 188, 212, 217, 234, 74, 80, 73, 97, 80, 172, 179, 178, 181, 161, 166, 172, 194, 214, 224, 223, 95, 86, 92, 100, 116, 168, 167, 166, 154, 157, 163, 176, 198, 207, 206, 215, 114, 106, 105, 106, 125, 126, 129, 130, 145, 159, 172, 175, 179, 190, 196];
Start = 1;
End = 126;
Time = 196;
